Minimize
  - 55 y_0 - 50 y_1 - 26 y_2 - 49 y_4 - 55 y_5 - 52 y_6 - y_7 - 14 y_8
   - 16 y_9 - 49 y_10 - 51 y_11 - 55 y_12 - 44 y_13 - 40 y_14 - 32 y_15
   - 16 y_16 - 43 y_17 - 4 y_18 - 14 y_19 - 36 y_20 - 53 y_21 - 40 y_22
   - 54 y_23 - 47 y_24 - 14 y_25 - 45 y_26 - 38 y_27 - 18 y_28 - 27 y_29
   - 46 y_30 - 44 y_31 - 52 y_32 - 32 y_33 - 47 y_34 - 33 y_35 - 54 y_36
   - 22 y_37 - 46 y_38 - 10 y_39 - 34 y_40 - 49 y_41 - 30 y_42 - 42 y_43
   - 18 y_44 - 29 y_45 - 19 y_46 - 38 y_47 - 33 y_48 - 19 y_49 - 37 y_50
   - 60 y_51 - 42 y_52 - 51 y_53 - 45 y_54 - 27 y_55 - 25 y_56 - 28 y_57
   - 45 y_58 - 48 y_59 - 33 y_60 - 25 y_61 - 24 y_62 - 34 y_63 - 43 y_64
   - 50 y_65 - 45 y_66 - 58 y_67 - 10 y_68 - 41 y_69 - 24 y_70 - 48 y_71
   - 41 y_72 - 51 y_73 - 36 y_74 - 45 y_75 - 56 y_76 - 43 y_77 - 11 y_78
   - 30 y_79 - 57 y_80 - 45 y_81 - 38 y_82 - 38 y_83 - 37 y_84 - 15 y_85
   - 41 y_86 - 49 y_87 - 30 y_88 - 41 y_89 - 40 y_90 - 47 y_91 - 45 y_92
   - 54 y_93 - 41 y_94 - 28 y_95 - 37 y_96 - 52 y_97 - 43 y_98 - 22 y_99
   + 3691 Constant
Subject To
 c_0: y_90 = 1
 c_1_0: y_0 + y_1 + y_5 + y_10 + y_12 + y_65 + y_71 + y_77 + y_90 + y_92
   + y_93 >= 1
 c_1_1: y_0 + y_1 + y_5 + y_10 + y_12 + y_65 + y_71 + y_77 + y_89 + y_90
   + y_91 + y_92 + y_93 >= 1
 c_1_2: y_2 + y_8 + y_9 + y_24 + y_25 + y_29 + y_33 + y_44 + y_49 + y_58
   + y_74 + y_88 + y_99 >= 1
 c_1_3: y_3 + y_7 + y_8 + y_9 + y_16 + y_18 + y_19 + y_25 + y_28 + y_39
   + y_44 + y_46 + y_49 + y_68 + y_78 + y_85 >= 1
 c_1_4: y_4 + y_21 + y_73 + y_80 + y_96 >= 1
 c_1_5: y_0 + y_1 + y_5 + y_10 + y_12 + y_65 + y_71 + y_87 + y_89 + y_90
   + y_91 + y_93 >= 1
 c_1_6: y_6 + y_13 + y_26 + y_52 + y_53 + y_59 + y_64 >= 1
 c_1_7: y_3 + y_7 + y_8 + y_9 + y_16 + y_18 + y_19 + y_25 + y_28 + y_39
   + y_44 + y_46 + y_49 + y_68 + y_78 + y_85 >= 1
 c_1_8: y_2 + y_3 + y_7 + y_8 + y_9 + y_16 + y_18 + y_25 + y_29 + y_44
   + y_49 + y_61 + y_99 >= 1
 c_1_9: y_2 + y_3 + y_7 + y_8 + y_9 + y_16 + y_18 + y_25 + y_28 + y_29
   + y_44 + y_49 + y_78 + y_88 + y_99 >= 1
 c_1_10: y_0 + y_1 + y_5 + y_10 + y_12 + y_65 + y_71 + y_87 + y_89 + y_90
   + y_91 + y_92 + y_93 >= 1
 c_1_11: y_11 + y_20 + y_23 + y_41 + y_51 + y_75 + y_76 >= 1
 c_1_12: y_0 + y_1 + y_5 + y_10 + y_12 + y_65 + y_71 + y_87 + y_89 + y_90
   + y_91 + y_93 >= 1
 c_1_13: y_6 + y_13 + y_26 + y_31 + y_43 + y_52 + y_53 + y_59 + y_62 + y_64
   + y_66 + y_94 + y_95 >= 1
 c_1_14: y_14 + y_15 + y_17 + y_22 + y_30 + y_34 + y_47 + y_48 + y_54
   + y_63 + y_69 + y_81 + y_84 + y_98 >= 1
 c_1_15: y_14 + y_15 + y_17 + y_22 + y_47 + y_48 + y_54 + y_63 + y_69
   + y_70 + y_81 + y_84 + y_85 + y_98 >= 1
 c_1_16: y_3 + y_7 + y_8 + y_9 + y_16 + y_40 + y_49 + y_61 + y_62 + y_95
   >= 1
 c_1_17: y_14 + y_15 + y_17 + y_22 + y_30 + y_34 + y_47 + y_48 + y_54
   + y_63 + y_69 + y_81 + y_84 + y_98 >= 1
 c_1_18: y_3 + y_7 + y_8 + y_9 + y_18 + y_19 + y_25 + y_28 + y_39 + y_44
   + y_49 + y_68 + y_70 + y_78 + y_85 >= 1
 c_1_19: y_3 + y_7 + y_18 + y_19 + y_37 + y_39 + y_45 + y_46 + y_56 + y_57
   + y_68 + y_78 + y_85 >= 1
 c_1_20: y_11 + y_20 + y_23 + y_28 + y_30 + y_34 + y_41 + y_54 + y_55
   + y_63 + y_69 + y_70 + y_75 + y_81 + y_84 >= 1
 c_1_21: y_4 + y_21 + y_73 + y_80 >= 1
 c_1_22: y_14 + y_15 + y_17 + y_22 + y_47 + y_48 + y_54 + y_63 + y_69
   + y_81 + y_84 + y_98 >= 1
 c_1_23: y_11 + y_20 + y_23 + y_41 + y_51 + y_75 + y_76 >= 1
 c_1_24: y_2 + y_24 + y_32 + y_38 + y_58 + y_67 + y_74 + y_86 + y_88 + y_97
   >= 1
 c_1_25: y_2 + y_3 + y_7 + y_8 + y_9 + y_18 + y_25 + y_28 + y_29 + y_33
   + y_42 + y_44 + y_49 + y_68 + y_78 + y_79 + y_85 + y_88 + y_99 >= 1
 c_1_26: y_6 + y_13 + y_26 + y_40 + y_43 + y_52 + y_53 + y_59 + y_64 + y_95
   >= 1
 c_1_27: y_27 + y_31 + y_35 + y_37 + y_45 + y_46 + y_50 + y_56 + y_57
   + y_60 + y_72 + y_82 + y_83 + y_96 >= 1
 c_1_28: y_3 + y_7 + y_9 + y_18 + y_20 + y_25 + y_28 + y_33 + y_42 + y_44
   + y_55 + y_68 + y_70 + y_78 + y_79 + y_85 + y_99 >= 1
 c_1_29: y_2 + y_8 + y_9 + y_25 + y_29 + y_33 + y_42 + y_44 + y_49 + y_58
   + y_74 + y_79 + y_86 + y_88 + y_99 >= 1
 c_1_30: y_14 + y_17 + y_20 + y_30 + y_34 + y_54 + y_63 + y_69 + y_75
   + y_81 + y_84 + y_98 >= 1
 c_1_31: y_13 + y_27 + y_31 + y_35 + y_43 + y_50 + y_59 + y_60 + y_64
   + y_66 + y_72 + y_82 + y_94 >= 1
 c_1_32: y_24 + y_32 + y_36 + y_58 + y_67 + y_86 + y_97 >= 1
 c_1_33: y_2 + y_25 + y_28 + y_29 + y_33 + y_42 + y_44 + y_55 + y_79 + y_86
   + y_88 + y_99 >= 1
 c_1_34: y_14 + y_17 + y_20 + y_30 + y_34 + y_54 + y_63 + y_69 + y_75
   + y_81 + y_84 >= 1
 c_1_35: y_27 + y_31 + y_35 + y_37 + y_45 + y_46 + y_50 + y_56 + y_57
   + y_60 + y_72 + y_82 + y_83 + y_94 >= 1
 c_1_36: y_32 + y_36 + y_86 >= 1
 c_1_37: y_19 + y_27 + y_35 + y_37 + y_39 + y_45 + y_46 + y_50 + y_56
   + y_57 + y_60 + y_68 + y_82 + y_83 + y_96 >= 1
 c_1_38: y_24 + y_38 + y_58 + y_67 + y_74 + y_87 + y_89 + y_90 + y_91
   + y_93 + y_97 >= 1
 c_1_39: y_3 + y_7 + y_18 + y_19 + y_37 + y_39 + y_46 + y_56 + y_57 + y_68
   + y_78 + y_85 >= 1
 c_1_40: y_16 + y_26 + y_40 + y_52 + y_61 + y_62 + y_65 + y_71 + y_77
   + y_92 >= 1
 c_1_41: y_11 + y_20 + y_23 + y_41 + y_51 + y_75 + y_76 >= 1
 c_1_42: y_25 + y_28 + y_29 + y_33 + y_42 + y_44 + y_55 + y_70 + y_79
   + y_86 + y_88 + y_99 >= 1
 c_1_43: y_13 + y_26 + y_31 + y_43 + y_53 + y_59 + y_60 + y_62 + y_64
   + y_66 + y_72 + y_94 + y_95 >= 1
 c_1_44: y_2 + y_3 + y_7 + y_8 + y_9 + y_18 + y_25 + y_28 + y_29 + y_33
   + y_42 + y_44 + y_49 + y_55 + y_68 + y_70 + y_78 + y_79 + y_85 + y_88
   + y_99 >= 1
 c_1_45: y_19 + y_27 + y_35 + y_37 + y_45 + y_46 + y_50 + y_56 + y_57
   + y_60 + y_82 + y_83 + y_96 >= 1
 c_1_46: y_3 + y_7 + y_19 + y_27 + y_35 + y_37 + y_39 + y_45 + y_46 + y_50
   + y_56 + y_57 + y_60 + y_62 + y_82 + y_95 >= 1
 c_1_47: y_14 + y_15 + y_17 + y_22 + y_47 + y_48 + y_63 + y_81 + y_98 >= 1
 c_1_48: y_14 + y_15 + y_17 + y_22 + y_47 + y_48 + y_96 + y_98 >= 1
 c_1_49: y_2 + y_3 + y_7 + y_8 + y_9 + y_16 + y_18 + y_25 + y_29 + y_44
   + y_49 + y_61 + y_74 + y_88 + y_99 >= 1
 c_1_50: y_27 + y_31 + y_35 + y_37 + y_45 + y_46 + y_50 + y_56 + y_57
   + y_60 + y_72 + y_82 + y_83 + y_94 >= 1
 c_1_51: y_11 + y_23 + y_41 + y_51 + y_76 >= 1
 c_1_52: y_6 + y_13 + y_26 + y_40 + y_52 + y_53 + y_59 + y_62 + y_64 + y_77
   + y_95 >= 1
 c_1_53: y_6 + y_13 + y_26 + y_43 + y_52 + y_53 + y_59 + y_64 + y_66 + y_94
   >= 1
 c_1_54: y_14 + y_15 + y_17 + y_20 + y_22 + y_30 + y_34 + y_54 + y_63
   + y_69 + y_75 + y_81 + y_84 + y_98 >= 1
 c_1_55: y_20 + y_28 + y_33 + y_42 + y_44 + y_55 + y_63 + y_70 + y_78
   + y_79 + y_84 + y_85 >= 1
 c_1_56: y_19 + y_27 + y_35 + y_37 + y_39 + y_45 + y_46 + y_50 + y_56
   + y_57 + y_60 + y_82 + y_83 + y_96 >= 1
 c_1_57: y_19 + y_27 + y_35 + y_37 + y_39 + y_45 + y_46 + y_50 + y_56
   + y_57 + y_60 + y_82 + y_83 + y_96 >= 1
 c_1_58: y_2 + y_24 + y_29 + y_32 + y_38 + y_58 + y_67 + y_74 + y_87 + y_88
   + y_97 >= 1
 c_1_59: y_6 + y_13 + y_26 + y_31 + y_43 + y_52 + y_53 + y_59 + y_64 + y_66
   + y_72 + y_94 + y_95 >= 1
 c_1_60: y_27 + y_31 + y_35 + y_37 + y_43 + y_45 + y_46 + y_50 + y_56
   + y_57 + y_60 + y_66 + y_72 + y_82 + y_83 + y_94 + y_95 >= 1
 c_1_61: y_8 + y_16 + y_40 + y_49 + y_61 + y_77 + y_89 + y_90 >= 1
 c_1_62: y_13 + y_16 + y_40 + y_43 + y_46 + y_52 + y_62 + y_64 + y_95 >= 1
 c_1_63: y_14 + y_15 + y_17 + y_20 + y_22 + y_30 + y_34 + y_47 + y_54
   + y_55 + y_63 + y_69 + y_70 + y_75 + y_81 + y_84 + y_85 + y_98 >= 1
 c_1_64: y_6 + y_13 + y_26 + y_31 + y_43 + y_52 + y_53 + y_59 + y_62 + y_64
   + y_66 + y_72 + y_94 + y_95 >= 1
 c_1_65: y_0 + y_1 + y_5 + y_10 + y_12 + y_40 + y_65 + y_71 + y_77 + y_89
   + y_90 + y_92 + y_93 >= 1
 c_1_66: y_13 + y_31 + y_43 + y_53 + y_59 + y_60 + y_64 + y_66 + y_72
   + y_94 + y_95 >= 1
 c_1_67: y_24 + y_32 + y_38 + y_58 + y_67 + y_97 >= 1
 c_1_68: y_3 + y_7 + y_18 + y_19 + y_25 + y_28 + y_37 + y_39 + y_44 + y_68
   + y_70 + y_78 + y_85 >= 1
 c_1_69: y_14 + y_15 + y_17 + y_20 + y_22 + y_30 + y_34 + y_54 + y_63
   + y_69 + y_70 + y_75 + y_81 + y_84 + y_98 >= 1
 c_1_70: y_15 + y_18 + y_20 + y_28 + y_42 + y_44 + y_55 + y_63 + y_68
   + y_69 + y_70 + y_75 + y_78 + y_84 + y_85 >= 1
 c_1_71: y_0 + y_1 + y_5 + y_10 + y_12 + y_40 + y_65 + y_71 + y_77 + y_89
   + y_90 + y_91 + y_92 + y_93 >= 1
 c_1_72: y_27 + y_31 + y_35 + y_43 + y_50 + y_59 + y_60 + y_64 + y_66
   + y_72 + y_82 + y_94 + y_95 >= 1
 c_1_73: y_4 + y_21 + y_73 + y_80 + y_96 >= 1
 c_1_74: y_2 + y_24 + y_29 + y_38 + y_49 + y_58 + y_74 + y_87 + y_88 + y_89
   + y_90 + y_91 >= 1
 c_1_75: y_11 + y_20 + y_23 + y_30 + y_34 + y_41 + y_54 + y_63 + y_69
   + y_70 + y_75 + y_81 + y_84 >= 1
 c_1_76: y_11 + y_23 + y_41 + y_51 + y_76 >= 1
 c_1_77: y_0 + y_1 + y_40 + y_52 + y_61 + y_65 + y_71 + y_77 + y_90 + y_92
   >= 1
 c_1_78: y_3 + y_7 + y_9 + y_18 + y_19 + y_25 + y_28 + y_39 + y_44 + y_55
   + y_68 + y_70 + y_78 + y_85 >= 1
 c_1_79: y_25 + y_28 + y_29 + y_33 + y_42 + y_44 + y_55 + y_79 + y_86
   + y_88 + y_99 >= 1
 c_1_80: y_4 + y_21 + y_73 + y_80 >= 1
 c_1_81: y_14 + y_15 + y_17 + y_20 + y_22 + y_30 + y_34 + y_47 + y_54
   + y_63 + y_69 + y_75 + y_81 + y_84 + y_98 >= 1
 c_1_82: y_27 + y_31 + y_35 + y_37 + y_45 + y_46 + y_50 + y_56 + y_57
   + y_60 + y_72 + y_82 + y_83 + y_96 >= 1
 c_1_83: y_27 + y_35 + y_37 + y_45 + y_50 + y_56 + y_57 + y_60 + y_82
   + y_83 + y_96 >= 1
 c_1_84: y_14 + y_15 + y_17 + y_20 + y_22 + y_30 + y_34 + y_54 + y_55
   + y_63 + y_69 + y_70 + y_75 + y_81 + y_84 + y_98 >= 1
 c_1_85: y_3 + y_7 + y_15 + y_18 + y_19 + y_25 + y_28 + y_39 + y_44 + y_55
   + y_63 + y_68 + y_70 + y_78 + y_85 >= 1
 c_1_86: y_24 + y_29 + y_32 + y_33 + y_36 + y_42 + y_79 + y_86 + y_88 >= 1
 c_1_87: y_5 + y_10 + y_12 + y_38 + y_58 + y_74 + y_87 + y_89 + y_90 + y_91
   + y_93 >= 1
 c_1_88: y_2 + y_9 + y_24 + y_25 + y_29 + y_33 + y_42 + y_44 + y_49 + y_58
   + y_74 + y_79 + y_86 + y_88 + y_99 >= 1
 c_1_89: y_1 + y_5 + y_10 + y_12 + y_38 + y_61 + y_65 + y_71 + y_74 + y_87
   + y_89 + y_90 + y_91 + y_93 >= 1
 c_1_90: y_0 + y_1 + y_5 + y_10 + y_12 + y_38 + y_61 + y_65 + y_71 + y_74
   + y_77 + y_87 + y_89 + y_90 + y_91 + y_92 + y_93 >= 1
 c_1_91: y_1 + y_5 + y_10 + y_12 + y_38 + y_71 + y_74 + y_87 + y_89 + y_90
   + y_91 + y_93 >= 1
 c_1_92: y_0 + y_1 + y_10 + y_40 + y_65 + y_71 + y_77 + y_90 + y_92 >= 1
 c_1_93: y_0 + y_1 + y_5 + y_10 + y_12 + y_38 + y_65 + y_71 + y_87 + y_89
   + y_90 + y_91 + y_93 >= 1
 c_1_94: y_13 + y_31 + y_35 + y_43 + y_50 + y_53 + y_59 + y_60 + y_64
   + y_66 + y_72 + y_94 + y_95 >= 1
 c_1_95: y_13 + y_16 + y_26 + y_43 + y_46 + y_52 + y_59 + y_60 + y_62
   + y_64 + y_66 + y_72 + y_94 + y_95 >= 1
 c_1_96: y_4 + y_27 + y_37 + y_45 + y_48 + y_56 + y_57 + y_73 + y_82 + y_83
   + y_96 >= 1
 c_1_97: y_24 + y_32 + y_38 + y_58 + y_67 + y_97 >= 1
 c_1_98: y_14 + y_15 + y_17 + y_22 + y_30 + y_47 + y_48 + y_54 + y_63
   + y_69 + y_81 + y_84 + y_98 >= 1
 c_1_99: y_2 + y_8 + y_9 + y_25 + y_28 + y_29 + y_33 + y_42 + y_44 + y_49
   + y_79 + y_88 + y_99 >= 1
Bounds
 Constant = 1
Binaries
 y_0 y_1 y_2 y_3 y_4 y_5 y_6 y_7 y_8 y_9 y_10 y_11 y_12 y_13 y_14 y_15 y_16
 y_17 y_18 y_19 y_20 y_21 y_22 y_23 y_24 y_25 y_26 y_27 y_28 y_29 y_30 y_31
 y_32 y_33 y_34 y_35 y_36 y_37 y_38 y_39 y_40 y_41 y_42 y_43 y_44 y_45 y_46
 y_47 y_48 y_49 y_50 y_51 y_52 y_53 y_54 y_55 y_56 y_57 y_58 y_59 y_60 y_61
 y_62 y_63 y_64 y_65 y_66 y_67 y_68 y_69 y_70 y_71 y_72 y_73 y_74 y_75 y_76
 y_77 y_78 y_79 y_80 y_81 y_82 y_83 y_84 y_85 y_86 y_87 y_88 y_89 y_90 y_91
 y_92 y_93 y_94 y_95 y_96 y_97 y_98 y_99
End
